
        $ From http://www.csplib.org/Problems/prob009/data/helmut.pdf
        $ Problem number 153
        $ Sequence length : 25
        language ESSENCE' 1.0
        letting sizemaster be 517
        letting sizes be sequence(5,6,7,16,20,24,28,33,38,43,63,71,80,83,86,92,98,122,132,148,164,166,173,180,205)
        